
  32    4
  10   10   10   10

   0   0   0   0   0   5 2 28 29 30 31 
   6   1   0   1   1   1 3 
   3   0   1   4   9   1 4 
   1   4   5   2   0   1 5 
   2   0   3   4   2   1 6 
   3  10   3   5   0   1 7 
   2   6   6   0   2   1 8 
  10   6   2   5   0   2 27 9 
  10   3   5   6   0   1 10 
   9   5   3   0   4   1 11 
   2   0   4   4   3   1 12 
   5   0   2   4   3   1 13 
   5   3   0   6   4   1 14 
   2   1   2   0   3   2 26 15 
   1   0   6   4   6   1 16 
   4   3   0   2   5   1 17 
   4   3   4   0   2   1 18 
   8   4   0   2   6   1 19 
  10   0   5   3   5   1 20 
   4   0   5   5   4   1 21 
   2   6   3   0   6   1 22 
   7   4   0   4   4   1 23 
   7   5   6   7   0   1 24 
   7   2   3   5   0   1 25 
   4   3   4   4   0   1 32
   7   6   5   2   0   1 32
   7   3   7   0   5   1 32
   1   0   5   8   6   1 32
   3   2   3   0   2   1 32
  10   0   4   4   4   1 32
   8   4   0   1   2   1 32
   0   0   0   0   0   0 
